RAW/XT/fspd-long/X-n139-k10.vrp_seed-1.out
13052	1.592	388.422
