RAW/XT/fspd-long/X-n139-k10.vrp_seed-1.sol
Route #1: 56 63 28 103 21 18 1 83 68 116 136 86 104 89
Route #2: 102 134 40 37 17 47 119 128 101 11 14 135 33 81
Route #3: 91 71 100 67 42 59 60 15 8 57 39 51 84 30 7 3
Route #4: 98
Route #5: 76 122 138 55 46 43 77 106 82 105 111 75 54
Route #6: 16 32 114 137 112 22 94 69 108 26 9 23 4 124
Route #7: 29 44 65 48 66 19 61 6 5 96 113 90 12 72 117 87
Route #8: 88 70 62 38 131 34 115 27 123 50 31 97 13 74 10 109
Route #9: 79 121 73 120 78 133 64 127 130 93 132 107 92 41 80 58 35 110 45 20
Route #10: 118 85 24 25 125 36 129 53 49 2 99 52 126 95
Cost 13052.000000